; benchmark generated from python API
(set-info :status unknown)
(declare-fun x_month () Int)
(declare-fun x_day () Int)
(declare-fun x_year () Int)
(declare-fun y_month () Int)
(declare-fun y_day () Int)
(declare-fun y_year () Int)
(assert
 (>= x_month 1))
(assert
 (<= x_month 12))
(assert
 (>= x_day 1))
(assert
 (<= x_day 31))
(assert
 (let (($x224 (<= x_day 28)))
 (let (($x222 (<= x_day 29)))
 (let (($x209 (= (mod x_year 400) 0)))
 (let (($x205 (= (mod x_year 4) 0)))
 (let (($x214 (ite (or (and $x205 (and (distinct (mod x_year 100) 0) true)) $x209) $x222 $x224)))
 (let (($x203 (= x_month 2)))
 (ite $x203 $x214 true))))))))
(assert
 (let (($x175 (<= x_day 30)))
 (let (($x173 (or (= x_month 4) (= x_month 6) (= x_month 9) (= x_month 11))))
 (ite $x173 $x175 true))))
(assert
 (>= y_month 1))
(assert
 (<= y_month 12))
(assert
 (>= y_day 1))
(assert
 (<= y_day 31))
(assert
 (let (($x219 (<= y_day 28)))
 (let (($x218 (<= y_day 29)))
 (let (($x192 (= (mod y_year 400) 0)))
 (let (($x187 (= (mod y_year 4) 0)))
 (let (($x225 (ite (or (and $x187 (and (distinct (mod y_year 100) 0) true)) $x192) $x218 $x219)))
 (let (($x184 (= y_month 2)))
 (ite $x184 $x225 true))))))))
(assert
 (let (($x239 (<= y_day 30)))
 (let (($x238 (or (= y_month 4) (= y_month 6) (= y_month 9) (= y_month 11))))
 (ite $x238 $x239 true))))
(assert
 (let (($x244 (= x_day 31)))
 (let (($x243 (= x_month 1)))
 (let (($x242 (= x_year 2020)))
 (and $x242 $x243 $x244)))))
(assert
 (let (($x249 (= y_day 31)))
 (let (($x248 (= y_month 1)))
 (let (($x247 (= y_year 2019)))
 (and $x247 $x248 $x249)))))
(assert
 (let ((?x137 (mod 0 146097)))
 (let (($x151 (or (= (+ (mod (- (+ x_month 1) 1) 12) 1) 4) (= (+ (mod (- (+ x_month 1) 1) 12) 1) 6) (= (+ (mod (- (+ x_month 1) 1) 12) 1) 9) (= (+ (mod (- (+ x_month 1) 1) 12) 1) 11))))
 (let ((?x160 (+ (+ x_year 0) (div (- (+ x_month 1) 1) 12))))
 (let (($x268 (or (and (= (mod ?x160 4) 0) (and (distinct (mod ?x160 100) 0) true)) (= (mod ?x160 400) 0))))
 (let ((?x124 (ite (= (+ (mod (- (+ x_month 1) 1) 12) 1) 2) (ite $x268 29 28) (ite $x151 30 31))))
 (let ((?x128 (ite (< x_day 1) 1 (ite (> x_day ?x124) ?x124 x_day))))
 (let ((?x133 (ite (< ?x128 1) 1 (ite (> ?x128 ?x124) ?x124 ?x128))))
 (let ((?x285 (ite (< 2 (+ (mod (- (+ x_month 1) 1) 12) 1)) (- 3) 9)))
 (let ((?x265 (+ (mod (- (+ x_month 1) 1) 12) 1)))
 (let ((?x269 (- (+ ?x160 (* (div 0 146097) 400)) (ite (>= 2 ?x265) 1 0))))
 (let ((?x277 (ite (<= 0 ?x269) (div ?x269 400) (div (- ?x269 399) 400))))
 (let ((?x280 (- ?x269 (* ?x277 400))))
 (let ((?x298 (+ (- (+ (* ?x280 365) (div ?x280 4)) (div ?x280 100)) (- (+ (div (+ (* 153 (+ ?x265 ?x285)) 2) 5) ?x133) 1))))
 (let ((?x303 (+ (+ (* ?x277 146097) ?x298) ?x137)))
 (let ((?x308 (ite (<= 0 ?x303) (div ?x303 146097) (div (- ?x303 146096) 146097))))
 (let ((?x317 (- ?x303 (* ?x308 146097))))
 (let ((?x326 (div (+ (* 400 ?x317) 591) 146097)))
 (let ((?x314 (- ?x317 (- (+ (* 365 ?x326) (div ?x326 4)) (div ?x326 100)))))
 (let ((?x310 (div (+ (* 5 ?x314) 2) 153)))
 (let (($x135 (= 0 0)))
 (let ((?x141 (ite $x135 ?x133 (+ (- ?x314 (div (+ (* 153 ?x310) 2) 5)) 1))))
 (let (($x257 (= (ite $x135 ?x265 (- (+ ?x310 3) (ite (> 10 ?x310) 0 12))) 2)))
 (let ((?x153 (ite (>= 2 (- (+ ?x310 3) (ite (> 10 ?x310) 0 12))) 1 0)))
 (and (= (ite $x135 ?x160 (+ (+ ?x326 (* ?x308 400)) ?x153)) 2020) $x257 (= ?x141 29))))))))))))))))))))))))))
(assert
 (let ((?x137 (mod 0 146097)))
(let (($x391 (or (= (+ (mod (- (+ y_month 1) 1) 12) 1) 4) (= (+ (mod (- (+ y_month 1) 1) 12) 1) 6) (= (+ (mod (- (+ y_month 1) 1) 12) 1) 9) (= (+ (mod (- (+ y_month 1) 1) 12) 1) 11))))
(let ((?x375 (+ (+ y_year 0) (div (- (+ y_month 1) 1) 12))))
(let (($x385 (or (and (= (mod ?x375 4) 0) (and (distinct (mod ?x375 100) 0) true)) (= (mod ?x375 400) 0))))
(let ((?x393 (ite (= (+ (mod (- (+ y_month 1) 1) 12) 1) 2) (ite $x385 29 28) (ite $x391 30 31))))
(let ((?x397 (ite (< y_day 1) 1 (ite (> y_day ?x393) ?x393 y_day))))
(let ((?x401 (ite (< ?x397 1) 1 (ite (> ?x397 ?x393) ?x393 ?x397))))
(let ((?x414 (ite (< 2 (+ (mod (- (+ y_month 1) 1) 12) 1)) (- 3) 9)))
(let ((?x376 (+ (mod (- (+ y_month 1) 1) 12) 1)))
(let ((?x405 (- (+ ?x375 (* (div 0 146097) 400)) (ite (>= 2 ?x376) 1 0))))
(let ((?x410 (ite (<= 0 ?x405) (div ?x405 400) (div (- ?x405 399) 400))))
(let ((?x412 (- ?x405 (* ?x410 400))))
(let ((?x426 (+ (- (+ (* ?x412 365) (div ?x412 4)) (div ?x412 100)) (- (+ (div (+ (* 153 (+ ?x376 ?x414)) 2) 5) ?x401) 1))))
(let ((?x429 (+ (+ (* ?x410 146097) ?x426) ?x137)))
(let ((?x434 (ite (<= 0 ?x429) (div ?x429 146097) (div (- ?x429 146096) 146097))))
(let ((?x436 (- ?x429 (* ?x434 146097))))
(let ((?x439 (div (+ (* 400 ?x436) 591) 146097)))
(let ((?x445 (- ?x436 (- (+ (* 365 ?x439) (div ?x439 4)) (div ?x439 100)))))
(let ((?x448 (div (+ (* 5 ?x445) 2) 153)))
(let (($x135 (= 0 0)))
(let ((?x465 (ite $x135 ?x401 (+ (- ?x445 (div (+ (* 153 ?x448) 2) 5)) 1))))
(let (($x368 (= (ite $x135 ?x376 (- (+ ?x448 3) (ite (> 10 ?x448) 0 12))) 2)))
(let ((?x461 (ite (>= 2 (- (+ ?x448 3) (ite (> 10 ?x448) 0 12))) 1 0)))
(and (= (ite $x135 ?x375 (+ (+ ?x439 (* ?x434 400)) ?x461)) 2019) $x368 (= ?x465 28))))))))))))))))))))))))))
(check-sat)
